p tw 70 76
1 2
2 3
11 12
11 34
12 13
13 14
13 48
14 66
15 16
16 17
17 18
18 19
19 20
20 21
3 4
21 22
22 23
23 24
24 25
25 26
26 27
27 28
28 29
29 30
30 31
30 32
4 5
31 69
32 33
33 34
34 35
35 36
36 37
37 38
38 39
39 40
40 41
5 6
41 42
42 43
43 44
44 45
44 46
45 69
46 47
47 48
48 49
49 50
50 51
6 7
51 52
52 53
53 54
54 55
55 56
56 57
57 58
58 59
59 60
60 61
7 15
7 8
61 62
61 63
62 69
63 64
64 65
65 66
66 67
67 68
68 69
69 70
8 9
9 17
9 10
10 11
